p tw 107 116
1 2
2 20
3 11
3 16
4 5
5 6
6 7
7 8
8 9
8 107
9 10
11 12
12 13
13 14
14 15
15 86
16 17
17 18
18 19
19 21
20 31
21 22
22 23
23 24
24 25
25 26
26 27
27 28
28 29
29 30
29 79
30 32
31 42
32 33
32 39
33 34
34 35
35 36
36 37
37 38
38 24
39 40
40 41
41 43
41 66
42 53
43 44
44 45
45 46
46 47
46 66
47 48
48 49
49 50
49 66
50 51
51 52
52 54
53 64
54 55
55 56
56 57
57 58
58 59
59 60
60 61
61 62
62 63
63 65
64 75
65 24
66 67
67 68
68 69
69 70
70 71
71 72
72 73
73 74
73 24
74 76
75 86
76 77
77 78
78 24
79 80
80 81
81 82
82 83
83 84
84 85
85 87
86 97
87 88
88 89
89 90
90 91
91 92
92 93
93 94
93 102
94 95
95 96
96 98
96 88
97 3
98 99
99 100
100 101
101 88
102 103
103 104
104 105
105 106
106 107
107 4
